p cnf 105 355
c p weight 42 -1 0
c p weight -42 1 0
c p weight 44 6.12323399573676603586882014729198302312846062338790031898128063403419218957424163818359375E-17 0
c p weight -44 1 0
c p weight 45 1 0
c p weight -45 1 0
c p weight 46 -1 0
c p weight -46 1 0
c p weight 48 -1 0
c p weight -48 1 0
c p weight 51 -1 0
c p weight -51 1 0
c p weight 54 -1 0
c p weight -54 1 0
c p weight 57 -1 0
c p weight -57 1 0
c p weight 60 -1 0
c p weight -60 1 0
c p weight 63 -1 0
c p weight -63 1 0
c p weight 66 -1 0
c p weight -66 1 0
c p weight 69 -1 0
c p weight -69 1 0
c p weight 72 -1 0
c p weight -72 1 0
c p weight 75 -1 0
c p weight -75 1 0
c p weight 78 -1 0
c p weight -78 1 0
c p weight 81 -1 0
c p weight -81 1 0
c p weight 84 -1 0
c p weight -84 1 0
c p weight 87 -1 0
c p weight -87 1 0
c p weight 90 -1 0
c p weight -90 1 0
c p weight 93 -1 0
c p weight -93 1 0
c p weight 96 -1 0
c p weight -96 1 0
c p weight 99 -1 0
c p weight -99 1 0
c p weight 102 -1 0
c p weight -102 1 0
c p weight 105 -1 0
c p weight -105 1 0
-39 0
-37 0
-35 0
-33 0
-31 0
-29 0
-27 0
-25 0
-23 0
-21 0
-19 0
-17 0
-15 0
-13 0
-11 0
-9 0
-7 0
-5 0
-3 0
-1 0
41 39 -40 0
41 -39 40 0
-41 39 40 0
-41 -39 -40 0
-42 39 0
-42 40 0
42 -39 -40 0
43 -39 41 0
-43 39 41 0
-44 41 0
43 -44 -39 0
-43 -44 39 0
43 44 39 -41 0
-43 44 -39 -41 0
-45 41 0
43 -45 39 0
-43 -45 -39 0
43 45 -39 -41 0
-43 45 39 -41 0
-46 43 0
-46 41 0
-46 -39 0
46 -43 39 -41 0
47 43 -41 0
47 -43 41 0
-47 43 41 0
-47 -43 -41 0
-48 43 0
-48 41 0
48 -43 -41 0
49 43 -37 0
49 -43 37 0
-49 43 37 0
-49 -43 -37 0
50 47 -38 0
50 -47 38 0
-50 47 38 0
-50 -47 -38 0
-51 43 0
-51 38 0
-51 37 -47 0
-51 -37 47 0
51 -43 37 47 -38 0
51 -43 -37 -47 -38 0
52 49 -35 0
52 -49 35 0
-52 49 35 0
-52 -49 -35 0
53 38 -36 0
53 -38 36 0
-53 38 36 0
-53 -38 -36 0
-54 49 0
-54 36 0
-54 35 -38 0
-54 -35 38 0
54 -49 35 38 -36 0
54 -49 -35 -38 -36 0
55 52 -33 0
55 -52 33 0
-55 52 33 0
-55 -52 -33 0
56 36 -34 0
56 -36 34 0
-56 36 34 0
-56 -36 -34 0
-57 52 0
-57 34 0
-57 33 -36 0
-57 -33 36 0
57 -52 33 36 -34 0
57 -52 -33 -36 -34 0
58 55 -31 0
58 -55 31 0
-58 55 31 0
-58 -55 -31 0
59 34 -32 0
59 -34 32 0
-59 34 32 0
-59 -34 -32 0
-60 55 0
-60 32 0
-60 31 -34 0
-60 -31 34 0
60 -55 31 34 -32 0
60 -55 -31 -34 -32 0
61 58 -29 0
61 -58 29 0
-61 58 29 0
-61 -58 -29 0
62 32 -30 0
62 -32 30 0
-62 32 30 0
-62 -32 -30 0
-63 58 0
-63 30 0
-63 29 -32 0
-63 -29 32 0
63 -58 29 32 -30 0
63 -58 -29 -32 -30 0
64 61 -27 0
64 -61 27 0
-64 61 27 0
-64 -61 -27 0
65 30 -28 0
65 -30 28 0
-65 30 28 0
-65 -30 -28 0
-66 61 0
-66 28 0
-66 27 -30 0
-66 -27 30 0
66 -61 27 30 -28 0
66 -61 -27 -30 -28 0
67 64 -25 0
67 -64 25 0
-67 64 25 0
-67 -64 -25 0
68 28 -26 0
68 -28 26 0
-68 28 26 0
-68 -28 -26 0
-69 64 0
-69 26 0
-69 25 -28 0
-69 -25 28 0
69 -64 25 28 -26 0
69 -64 -25 -28 -26 0
70 67 -23 0
70 -67 23 0
-70 67 23 0
-70 -67 -23 0
71 26 -24 0
71 -26 24 0
-71 26 24 0
-71 -26 -24 0
-72 67 0
-72 24 0
-72 23 -26 0
-72 -23 26 0
72 -67 23 26 -24 0
72 -67 -23 -26 -24 0
73 70 -21 0
73 -70 21 0
-73 70 21 0
-73 -70 -21 0
74 24 -22 0
74 -24 22 0
-74 24 22 0
-74 -24 -22 0
-75 70 0
-75 22 0
-75 21 -24 0
-75 -21 24 0
75 -70 21 24 -22 0
75 -70 -21 -24 -22 0
76 73 -19 0
76 -73 19 0
-76 73 19 0
-76 -73 -19 0
77 22 -20 0
77 -22 20 0
-77 22 20 0
-77 -22 -20 0
-78 73 0
-78 20 0
-78 19 -22 0
-78 -19 22 0
78 -73 19 22 -20 0
78 -73 -19 -22 -20 0
79 76 -17 0
79 -76 17 0
-79 76 17 0
-79 -76 -17 0
80 20 -18 0
80 -20 18 0
-80 20 18 0
-80 -20 -18 0
-81 76 0
-81 18 0
-81 17 -20 0
-81 -17 20 0
81 -76 17 20 -18 0
81 -76 -17 -20 -18 0
82 79 -15 0
82 -79 15 0
-82 79 15 0
-82 -79 -15 0
83 18 -16 0
83 -18 16 0
-83 18 16 0
-83 -18 -16 0
-84 79 0
-84 16 0
-84 15 -18 0
-84 -15 18 0
84 -79 15 18 -16 0
84 -79 -15 -18 -16 0
85 82 -13 0
85 -82 13 0
-85 82 13 0
-85 -82 -13 0
86 16 -14 0
86 -16 14 0
-86 16 14 0
-86 -16 -14 0
-87 82 0
-87 14 0
-87 13 -16 0
-87 -13 16 0
87 -82 13 16 -14 0
87 -82 -13 -16 -14 0
88 85 -11 0
88 -85 11 0
-88 85 11 0
-88 -85 -11 0
89 14 -12 0
89 -14 12 0
-89 14 12 0
-89 -14 -12 0
-90 85 0
-90 12 0
-90 11 -14 0
-90 -11 14 0
90 -85 11 14 -12 0
90 -85 -11 -14 -12 0
91 88 -9 0
91 -88 9 0
-91 88 9 0
-91 -88 -9 0
92 12 -10 0
92 -12 10 0
-92 12 10 0
-92 -12 -10 0
-93 88 0
-93 10 0
-93 9 -12 0
-93 -9 12 0
93 -88 9 12 -10 0
93 -88 -9 -12 -10 0
94 91 -7 0
94 -91 7 0
-94 91 7 0
-94 -91 -7 0
95 10 -8 0
95 -10 8 0
-95 10 8 0
-95 -10 -8 0
-96 91 0
-96 8 0
-96 7 -10 0
-96 -7 10 0
96 -91 7 10 -8 0
96 -91 -7 -10 -8 0
97 94 -5 0
97 -94 5 0
-97 94 5 0
-97 -94 -5 0
98 8 -6 0
98 -8 6 0
-98 8 6 0
-98 -8 -6 0
-99 94 0
-99 6 0
-99 5 -8 0
-99 -5 8 0
99 -94 5 8 -6 0
99 -94 -5 -8 -6 0
100 97 -3 0
100 -97 3 0
-100 97 3 0
-100 -97 -3 0
101 6 -4 0
101 -6 4 0
-101 6 4 0
-101 -6 -4 0
-102 97 0
-102 4 0
-102 3 -6 0
-102 -3 6 0
102 -97 3 6 -4 0
102 -97 -3 -6 -4 0
103 100 -1 0
103 -100 1 0
-103 100 1 0
-103 -100 -1 0
104 4 -2 0
104 -4 2 0
-104 4 2 0
-104 -4 -2 0
-105 100 0
-105 2 0
-105 1 -4 0
-105 -1 4 0
105 -100 1 4 -2 0
105 -100 -1 -4 -2 0
-103 0
-100 0
-104 0
-97 0
-101 0
-94 0
-98 0
-91 0
-95 0
-88 0
-92 0
-85 0
-89 0
-82 0
-86 0
-79 0
-83 0
-76 0
-80 0
-73 0
-77 0
-70 0
-74 0
-67 0
-71 0
-64 0
-68 0
-61 0
-65 0
-58 0
-62 0
-55 0
-59 0
-52 0
-56 0
-49 0
-53 0
-43 0
-50 0
